31
19
0
98
81
120
0
45
32
16
63
43
86
61
69
69
52
139
35
46
62
449
63
28
43
53
66
49
20
82
0
243
61
18
43
85
15
35
24
20
24
99
315
75
65
632
17
21
334
51
25
72
22
28
23
26
169
19
72
18
0
0
88
0
56
57
200
90
20
116
93
12
93
345
188
116
186
359
29
29
75
34
40
20
323
56
82
41
17
41
0
0
43
53
0
92
142
50
223
15
